\* Financial Planning *\
Maximize
OBJ: 0.015625 y_0 + 0.015625 y_1 + 0.015625 y_10 + 0.015625 y_11
 + 0.015625 y_12 + 0.015625 y_13 + 0.015625 y_14 + 0.015625 y_15
 + 0.015625 y_16 + 0.015625 y_17 + 0.015625 y_18 + 0.015625 y_19
 + 0.015625 y_2 + 0.015625 y_20 + 0.015625 y_21 + 0.015625 y_22
 + 0.015625 y_23 + 0.015625 y_24 + 0.015625 y_25 + 0.015625 y_26
 + 0.015625 y_27 + 0.015625 y_28 + 0.015625 y_29 + 0.015625 y_3
 + 0.015625 y_30 + 0.015625 y_31 + 0.015625 y_32 + 0.015625 y_33
 + 0.015625 y_34 + 0.015625 y_35 + 0.015625 y_36 + 0.015625 y_37
 + 0.015625 y_38 + 0.015625 y_39 + 0.015625 y_4 + 0.015625 y_40
 + 0.015625 y_41 + 0.015625 y_42 + 0.015625 y_43 + 0.015625 y_44
 + 0.015625 y_45 + 0.015625 y_46 + 0.015625 y_47 + 0.015625 y_48
 + 0.015625 y_49 + 0.015625 y_5 + 0.015625 y_50 + 0.015625 y_51
 + 0.015625 y_52 + 0.015625 y_53 + 0.015625 y_54 + 0.015625 y_55
 + 0.015625 y_56 + 0.015625 y_57 + 0.015625 y_58 + 0.015625 y_59
 + 0.015625 y_6 + 0.015625 y_60 + 0.015625 y_61 + 0.015625 y_62
 + 0.015625 y_63 + 0.015625 y_7 + 0.015625 y_8 + 0.015625 y_9 + 0.03125 z_0
 + 0.03125 z_1 + 0.03125 z_10 + 0.03125 z_11 + 0.03125 z_12 + 0.03125 z_13
 + 0.03125 z_14 + 0.03125 z_15 + 0.03125 z_16 + 0.03125 z_17 + 0.03125 z_18
 + 0.03125 z_19 + 0.03125 z_2 + 0.03125 z_20 + 0.03125 z_21 + 0.03125 z_22
 + 0.03125 z_23 + 0.03125 z_24 + 0.03125 z_25 + 0.03125 z_26 + 0.03125 z_27
 + 0.03125 z_28 + 0.03125 z_29 + 0.03125 z_3 + 0.03125 z_30 + 0.03125 z_31
 + 0.03125 z_32 + 0.03125 z_33 + 0.03125 z_34 + 0.03125 z_35 + 0.03125 z_36
 + 0.03125 z_37 + 0.03125 z_38 + 0.03125 z_39 + 0.03125 z_4 + 0.03125 z_40
 + 0.03125 z_41 + 0.03125 z_42 + 0.03125 z_43 + 0.03125 z_44 + 0.03125 z_45
 + 0.03125 z_46 + 0.03125 z_47 + 0.03125 z_48 + 0.03125 z_49 + 0.03125 z_5
 + 0.03125 z_50 + 0.03125 z_51 + 0.03125 z_52 + 0.03125 z_53 + 0.03125 z_54
 + 0.03125 z_55 + 0.03125 z_56 + 0.03125 z_57 + 0.03125 z_58 + 0.03125 z_59
 + 0.03125 z_6 + 0.03125 z_60 + 0.03125 z_61 + 0.03125 z_62 + 0.03125 z_63
 + 0.03125 z_7 + 0.03125 z_8 + 0.03125 z_9
Subject To
_C1: x_(0,_'bond') + x_(0,_'stock') = 10000
_C10: - 1.05 x_(2,_'bond') - 1.25 x_(2,_'stock') + x_(9,_'bond')
 + x_(9,_'stock') = 0
_C100: x_(15,_'bond') + x_(15,_'stock') - 1.06 x_(3,_'bond') - x_(3,_'stock')
 = 0
_C101: x_(16,_'bond') + x_(16,_'stock') - 1.08 x_(3,_'bond')
 - 0.95 x_(3,_'stock') = 0
_C102: x_(17,_'bond') + x_(17,_'stock') - 1.05 x_(4,_'bond')
 - 1.25 x_(4,_'stock') = 0
_C103: x_(18,_'bond') + x_(18,_'stock') - 1.05 x_(4,_'bond')
 - 1.1 x_(4,_'stock') = 0
_C104: x_(19,_'bond') + x_(19,_'stock') - 1.06 x_(4,_'bond') - x_(4,_'stock')
 = 0
_C105: x_(20,_'bond') + x_(20,_'stock') - 1.08 x_(4,_'bond')
 - 0.95 x_(4,_'stock') = 0
_C106: 1.05 x_(5,_'bond') + 1.25 x_(5,_'stock') - y_0 + z_0 = 15000
_C107: 1.05 x_(5,_'bond') + 1.1 x_(5,_'stock') - y_1 + z_1 = 15000
_C108: 1.06 x_(5,_'bond') + x_(5,_'stock') - y_2 + z_2 = 15000
_C109: 1.08 x_(5,_'bond') + 0.95 x_(5,_'stock') - y_3 + z_3 = 15000
_C11: x_(10,_'bond') + x_(10,_'stock') - 1.05 x_(2,_'bond')
 - 1.1 x_(2,_'stock') = 0
_C110: 1.05 x_(6,_'bond') + 1.25 x_(6,_'stock') - y_4 + z_4 = 15000
_C111: 1.05 x_(6,_'bond') + 1.1 x_(6,_'stock') - y_5 + z_5 = 15000
_C112: 1.06 x_(6,_'bond') + x_(6,_'stock') - y_6 + z_6 = 15000
_C113: 1.08 x_(6,_'bond') + 0.95 x_(6,_'stock') - y_7 + z_7 = 15000
_C114: 1.05 x_(7,_'bond') + 1.25 x_(7,_'stock') - y_8 + z_8 = 15000
_C115: 1.05 x_(7,_'bond') + 1.1 x_(7,_'stock') - y_9 + z_9 = 15000
_C116: 1.06 x_(7,_'bond') + x_(7,_'stock') - y_10 + z_10 = 15000
_C117: 1.08 x_(7,_'bond') + 0.95 x_(7,_'stock') - y_11 + z_11 = 15000
_C118: 1.05 x_(8,_'bond') + 1.25 x_(8,_'stock') - y_12 + z_12 = 15000
_C119: 1.05 x_(8,_'bond') + 1.1 x_(8,_'stock') - y_13 + z_13 = 15000
_C12: x_(11,_'bond') + x_(11,_'stock') - 1.06 x_(2,_'bond') - x_(2,_'stock')
 = 0
_C120: 1.06 x_(8,_'bond') + x_(8,_'stock') - y_14 + z_14 = 15000
_C121: 1.08 x_(8,_'bond') + 0.95 x_(8,_'stock') - y_15 + z_15 = 15000
_C122: 1.05 x_(9,_'bond') + 1.25 x_(9,_'stock') - y_16 + z_16 = 15000
_C123: 1.05 x_(9,_'bond') + 1.1 x_(9,_'stock') - y_17 + z_17 = 15000
_C124: 1.06 x_(9,_'bond') + x_(9,_'stock') - y_18 + z_18 = 15000
_C125: 1.08 x_(9,_'bond') + 0.95 x_(9,_'stock') - y_19 + z_19 = 15000
_C126: 1.05 x_(10,_'bond') + 1.25 x_(10,_'stock') - y_20 + z_20 = 15000
_C127: 1.05 x_(10,_'bond') + 1.1 x_(10,_'stock') - y_21 + z_21 = 15000
_C128: 1.06 x_(10,_'bond') + x_(10,_'stock') - y_22 + z_22 = 15000
_C129: 1.08 x_(10,_'bond') + 0.95 x_(10,_'stock') - y_23 + z_23 = 15000
_C13: x_(12,_'bond') + x_(12,_'stock') - 1.08 x_(2,_'bond')
 - 0.95 x_(2,_'stock') = 0
_C130: 1.05 x_(11,_'bond') + 1.25 x_(11,_'stock') - y_24 + z_24 = 15000
_C131: 1.05 x_(11,_'bond') + 1.1 x_(11,_'stock') - y_25 + z_25 = 15000
_C132: 1.06 x_(11,_'bond') + x_(11,_'stock') - y_26 + z_26 = 15000
_C133: 1.08 x_(11,_'bond') + 0.95 x_(11,_'stock') - y_27 + z_27 = 15000
_C134: 1.05 x_(12,_'bond') + 1.25 x_(12,_'stock') - y_28 + z_28 = 15000
_C135: 1.05 x_(12,_'bond') + 1.1 x_(12,_'stock') - y_29 + z_29 = 15000
_C136: 1.06 x_(12,_'bond') + x_(12,_'stock') - y_30 + z_30 = 15000
_C137: 1.08 x_(12,_'bond') + 0.95 x_(12,_'stock') - y_31 + z_31 = 15000
_C138: 1.05 x_(13,_'bond') + 1.25 x_(13,_'stock') - y_32 + z_32 = 15000
_C139: 1.05 x_(13,_'bond') + 1.1 x_(13,_'stock') - y_33 + z_33 = 15000
_C14: x_(13,_'bond') + x_(13,_'stock') - 1.05 x_(3,_'bond')
 - 1.25 x_(3,_'stock') = 0
_C140: 1.06 x_(13,_'bond') + x_(13,_'stock') - y_34 + z_34 = 15000
_C141: 1.08 x_(13,_'bond') + 0.95 x_(13,_'stock') - y_35 + z_35 = 15000
_C142: 1.05 x_(14,_'bond') + 1.25 x_(14,_'stock') - y_36 + z_36 = 15000
_C143: 1.05 x_(14,_'bond') + 1.1 x_(14,_'stock') - y_37 + z_37 = 15000
_C144: 1.06 x_(14,_'bond') + x_(14,_'stock') - y_38 + z_38 = 15000
_C145: 1.08 x_(14,_'bond') + 0.95 x_(14,_'stock') - y_39 + z_39 = 15000
_C146: 1.05 x_(15,_'bond') + 1.25 x_(15,_'stock') - y_40 + z_40 = 15000
_C147: 1.05 x_(15,_'bond') + 1.1 x_(15,_'stock') - y_41 + z_41 = 15000
_C148: 1.06 x_(15,_'bond') + x_(15,_'stock') - y_42 + z_42 = 15000
_C149: 1.08 x_(15,_'bond') + 0.95 x_(15,_'stock') - y_43 + z_43 = 15000
_C15: x_(14,_'bond') + x_(14,_'stock') - 1.05 x_(3,_'bond')
 - 1.1 x_(3,_'stock') = 0
_C150: 1.05 x_(16,_'bond') + 1.25 x_(16,_'stock') - y_44 + z_44 = 15000
_C151: 1.05 x_(16,_'bond') + 1.1 x_(16,_'stock') - y_45 + z_45 = 15000
_C152: 1.06 x_(16,_'bond') + x_(16,_'stock') - y_46 + z_46 = 15000
_C153: 1.08 x_(16,_'bond') + 0.95 x_(16,_'stock') - y_47 + z_47 = 15000
_C154: 1.05 x_(17,_'bond') + 1.25 x_(17,_'stock') - y_48 + z_48 = 15000
_C155: 1.05 x_(17,_'bond') + 1.1 x_(17,_'stock') - y_49 + z_49 = 15000
_C156: 1.06 x_(17,_'bond') + x_(17,_'stock') - y_50 + z_50 = 15000
_C157: 1.08 x_(17,_'bond') + 0.95 x_(17,_'stock') - y_51 + z_51 = 15000
_C158: 1.05 x_(18,_'bond') + 1.25 x_(18,_'stock') - y_52 + z_52 = 15000
_C159: 1.05 x_(18,_'bond') + 1.1 x_(18,_'stock') - y_53 + z_53 = 15000
_C16: x_(15,_'bond') + x_(15,_'stock') - 1.06 x_(3,_'bond') - x_(3,_'stock')
 = 0
_C160: 1.06 x_(18,_'bond') + x_(18,_'stock') - y_54 + z_54 = 15000
_C161: 1.08 x_(18,_'bond') + 0.95 x_(18,_'stock') - y_55 + z_55 = 15000
_C162: 1.05 x_(19,_'bond') + 1.25 x_(19,_'stock') - y_56 + z_56 = 15000
_C163: 1.05 x_(19,_'bond') + 1.1 x_(19,_'stock') - y_57 + z_57 = 15000
_C164: 1.06 x_(19,_'bond') + x_(19,_'stock') - y_58 + z_58 = 15000
_C165: 1.08 x_(19,_'bond') + 0.95 x_(19,_'stock') - y_59 + z_59 = 15000
_C166: 1.05 x_(20,_'bond') + 1.25 x_(20,_'stock') - y_60 + z_60 = 15000
_C167: 1.05 x_(20,_'bond') + 1.1 x_(20,_'stock') - y_61 + z_61 = 15000
_C168: 1.06 x_(20,_'bond') + x_(20,_'stock') - y_62 + z_62 = 15000
_C169: 1.08 x_(20,_'bond') + 0.95 x_(20,_'stock') - y_63 + z_63 = 15000
_C17: x_(16,_'bond') + x_(16,_'stock') - 1.08 x_(3,_'bond')
 - 0.95 x_(3,_'stock') = 0
_C18: x_(17,_'bond') + x_(17,_'stock') - 1.05 x_(4,_'bond')
 - 1.25 x_(4,_'stock') = 0
_C19: x_(18,_'bond') + x_(18,_'stock') - 1.05 x_(4,_'bond')
 - 1.1 x_(4,_'stock') = 0
_C2: - 1.05 x_(0,_'bond') - 1.25 x_(0,_'stock') + x_(1,_'bond')
 + x_(1,_'stock') = 0
_C20: x_(19,_'bond') + x_(19,_'stock') - 1.06 x_(4,_'bond') - x_(4,_'stock')
 = 0
_C21: x_(20,_'bond') + x_(20,_'stock') - 1.08 x_(4,_'bond')
 - 0.95 x_(4,_'stock') = 0
_C22: 1.05 x_(5,_'bond') + 1.25 x_(5,_'stock') - y_0 + z_0 = 15000
_C23: 1.05 x_(5,_'bond') + 1.1 x_(5,_'stock') - y_1 + z_1 = 15000
_C24: 1.06 x_(5,_'bond') + x_(5,_'stock') - y_2 + z_2 = 15000
_C25: 1.08 x_(5,_'bond') + 0.95 x_(5,_'stock') - y_3 + z_3 = 15000
_C26: 1.05 x_(6,_'bond') + 1.25 x_(6,_'stock') - y_4 + z_4 = 15000
_C27: 1.05 x_(6,_'bond') + 1.1 x_(6,_'stock') - y_5 + z_5 = 15000
_C28: 1.06 x_(6,_'bond') + x_(6,_'stock') - y_6 + z_6 = 15000
_C29: 1.08 x_(6,_'bond') + 0.95 x_(6,_'stock') - y_7 + z_7 = 15000
_C3: - 1.05 x_(0,_'bond') - 1.1 x_(0,_'stock') + x_(2,_'bond')
 + x_(2,_'stock') = 0
_C30: 1.05 x_(7,_'bond') + 1.25 x_(7,_'stock') - y_8 + z_8 = 15000
_C31: 1.05 x_(7,_'bond') + 1.1 x_(7,_'stock') - y_9 + z_9 = 15000
_C32: 1.06 x_(7,_'bond') + x_(7,_'stock') - y_10 + z_10 = 15000
_C33: 1.08 x_(7,_'bond') + 0.95 x_(7,_'stock') - y_11 + z_11 = 15000
_C34: 1.05 x_(8,_'bond') + 1.25 x_(8,_'stock') - y_12 + z_12 = 15000
_C35: 1.05 x_(8,_'bond') + 1.1 x_(8,_'stock') - y_13 + z_13 = 15000
_C36: 1.06 x_(8,_'bond') + x_(8,_'stock') - y_14 + z_14 = 15000
_C37: 1.08 x_(8,_'bond') + 0.95 x_(8,_'stock') - y_15 + z_15 = 15000
_C38: 1.05 x_(9,_'bond') + 1.25 x_(9,_'stock') - y_16 + z_16 = 15000
_C39: 1.05 x_(9,_'bond') + 1.1 x_(9,_'stock') - y_17 + z_17 = 15000
_C4: - 1.06 x_(0,_'bond') - x_(0,_'stock') + x_(3,_'bond') + x_(3,_'stock')
 = 0
_C40: 1.06 x_(9,_'bond') + x_(9,_'stock') - y_18 + z_18 = 15000
_C41: 1.08 x_(9,_'bond') + 0.95 x_(9,_'stock') - y_19 + z_19 = 15000
_C42: 1.05 x_(10,_'bond') + 1.25 x_(10,_'stock') - y_20 + z_20 = 15000
_C43: 1.05 x_(10,_'bond') + 1.1 x_(10,_'stock') - y_21 + z_21 = 15000
_C44: 1.06 x_(10,_'bond') + x_(10,_'stock') - y_22 + z_22 = 15000
_C45: 1.08 x_(10,_'bond') + 0.95 x_(10,_'stock') - y_23 + z_23 = 15000
_C46: 1.05 x_(11,_'bond') + 1.25 x_(11,_'stock') - y_24 + z_24 = 15000
_C47: 1.05 x_(11,_'bond') + 1.1 x_(11,_'stock') - y_25 + z_25 = 15000
_C48: 1.06 x_(11,_'bond') + x_(11,_'stock') - y_26 + z_26 = 15000
_C49: 1.08 x_(11,_'bond') + 0.95 x_(11,_'stock') - y_27 + z_27 = 15000
_C5: - 1.08 x_(0,_'bond') - 0.95 x_(0,_'stock') + x_(4,_'bond')
 + x_(4,_'stock') = 0
_C50: 1.05 x_(12,_'bond') + 1.25 x_(12,_'stock') - y_28 + z_28 = 15000
_C51: 1.05 x_(12,_'bond') + 1.1 x_(12,_'stock') - y_29 + z_29 = 15000
_C52: 1.06 x_(12,_'bond') + x_(12,_'stock') - y_30 + z_30 = 15000
_C53: 1.08 x_(12,_'bond') + 0.95 x_(12,_'stock') - y_31 + z_31 = 15000
_C54: 1.05 x_(13,_'bond') + 1.25 x_(13,_'stock') - y_32 + z_32 = 15000
_C55: 1.05 x_(13,_'bond') + 1.1 x_(13,_'stock') - y_33 + z_33 = 15000
_C56: 1.06 x_(13,_'bond') + x_(13,_'stock') - y_34 + z_34 = 15000
_C57: 1.08 x_(13,_'bond') + 0.95 x_(13,_'stock') - y_35 + z_35 = 15000
_C58: 1.05 x_(14,_'bond') + 1.25 x_(14,_'stock') - y_36 + z_36 = 15000
_C59: 1.05 x_(14,_'bond') + 1.1 x_(14,_'stock') - y_37 + z_37 = 15000
_C6: - 1.05 x_(1,_'bond') - 1.25 x_(1,_'stock') + x_(5,_'bond')
 + x_(5,_'stock') = 0
_C60: 1.06 x_(14,_'bond') + x_(14,_'stock') - y_38 + z_38 = 15000
_C61: 1.08 x_(14,_'bond') + 0.95 x_(14,_'stock') - y_39 + z_39 = 15000
_C62: 1.05 x_(15,_'bond') + 1.25 x_(15,_'stock') - y_40 + z_40 = 15000
_C63: 1.05 x_(15,_'bond') + 1.1 x_(15,_'stock') - y_41 + z_41 = 15000
_C64: 1.06 x_(15,_'bond') + x_(15,_'stock') - y_42 + z_42 = 15000
_C65: 1.08 x_(15,_'bond') + 0.95 x_(15,_'stock') - y_43 + z_43 = 15000
_C66: 1.05 x_(16,_'bond') + 1.25 x_(16,_'stock') - y_44 + z_44 = 15000
_C67: 1.05 x_(16,_'bond') + 1.1 x_(16,_'stock') - y_45 + z_45 = 15000
_C68: 1.06 x_(16,_'bond') + x_(16,_'stock') - y_46 + z_46 = 15000
_C69: 1.08 x_(16,_'bond') + 0.95 x_(16,_'stock') - y_47 + z_47 = 15000
_C7: - 1.05 x_(1,_'bond') - 1.1 x_(1,_'stock') + x_(6,_'bond')
 + x_(6,_'stock') = 0
_C70: 1.05 x_(17,_'bond') + 1.25 x_(17,_'stock') - y_48 + z_48 = 15000
_C71: 1.05 x_(17,_'bond') + 1.1 x_(17,_'stock') - y_49 + z_49 = 15000
_C72: 1.06 x_(17,_'bond') + x_(17,_'stock') - y_50 + z_50 = 15000
_C73: 1.08 x_(17,_'bond') + 0.95 x_(17,_'stock') - y_51 + z_51 = 15000
_C74: 1.05 x_(18,_'bond') + 1.25 x_(18,_'stock') - y_52 + z_52 = 15000
_C75: 1.05 x_(18,_'bond') + 1.1 x_(18,_'stock') - y_53 + z_53 = 15000
_C76: 1.06 x_(18,_'bond') + x_(18,_'stock') - y_54 + z_54 = 15000
_C77: 1.08 x_(18,_'bond') + 0.95 x_(18,_'stock') - y_55 + z_55 = 15000
_C78: 1.05 x_(19,_'bond') + 1.25 x_(19,_'stock') - y_56 + z_56 = 15000
_C79: 1.05 x_(19,_'bond') + 1.1 x_(19,_'stock') - y_57 + z_57 = 15000
_C8: - 1.06 x_(1,_'bond') - x_(1,_'stock') + x_(7,_'bond') + x_(7,_'stock')
 = 0
_C80: 1.06 x_(19,_'bond') + x_(19,_'stock') - y_58 + z_58 = 15000
_C81: 1.08 x_(19,_'bond') + 0.95 x_(19,_'stock') - y_59 + z_59 = 15000
_C82: 1.05 x_(20,_'bond') + 1.25 x_(20,_'stock') - y_60 + z_60 = 15000
_C83: 1.05 x_(20,_'bond') + 1.1 x_(20,_'stock') - y_61 + z_61 = 15000
_C84: 1.06 x_(20,_'bond') + x_(20,_'stock') - y_62 + z_62 = 15000
_C85: 1.08 x_(20,_'bond') + 0.95 x_(20,_'stock') - y_63 + z_63 = 15000
_C86: - 1.05 x_(0,_'bond') - 1.25 x_(0,_'stock') + x_(1,_'bond')
 + x_(1,_'stock') = 0
_C87: - 1.05 x_(0,_'bond') - 1.1 x_(0,_'stock') + x_(2,_'bond')
 + x_(2,_'stock') = 0
_C88: - 1.06 x_(0,_'bond') - x_(0,_'stock') + x_(3,_'bond') + x_(3,_'stock')
 = 0
_C89: - 1.08 x_(0,_'bond') - 0.95 x_(0,_'stock') + x_(4,_'bond')
 + x_(4,_'stock') = 0
_C9: - 1.08 x_(1,_'bond') - 0.95 x_(1,_'stock') + x_(8,_'bond')
 + x_(8,_'stock') = 0
_C90: - 1.05 x_(1,_'bond') - 1.25 x_(1,_'stock') + x_(5,_'bond')
 + x_(5,_'stock') = 0
_C91: - 1.05 x_(1,_'bond') - 1.1 x_(1,_'stock') + x_(6,_'bond')
 + x_(6,_'stock') = 0
_C92: - 1.06 x_(1,_'bond') - x_(1,_'stock') + x_(7,_'bond') + x_(7,_'stock')
 = 0
_C93: - 1.08 x_(1,_'bond') - 0.95 x_(1,_'stock') + x_(8,_'bond')
 + x_(8,_'stock') = 0
_C94: - 1.05 x_(2,_'bond') - 1.25 x_(2,_'stock') + x_(9,_'bond')
 + x_(9,_'stock') = 0
_C95: x_(10,_'bond') + x_(10,_'stock') - 1.05 x_(2,_'bond')
 - 1.1 x_(2,_'stock') = 0
_C96: x_(11,_'bond') + x_(11,_'stock') - 1.06 x_(2,_'bond') - x_(2,_'stock')
 = 0
_C97: x_(12,_'bond') + x_(12,_'stock') - 1.08 x_(2,_'bond')
 - 0.95 x_(2,_'stock') = 0
_C98: x_(13,_'bond') + x_(13,_'stock') - 1.05 x_(3,_'bond')
 - 1.25 x_(3,_'stock') = 0
_C99: x_(14,_'bond') + x_(14,_'stock') - 1.05 x_(3,_'bond')
 - 1.1 x_(3,_'stock') = 0
Bounds
x_(0,_'bond') free
x_(0,_'stock') free
x_(1,_'bond') free
x_(1,_'stock') free
x_(10,_'bond') free
x_(10,_'stock') free
x_(11,_'bond') free
x_(11,_'stock') free
x_(12,_'bond') free
x_(12,_'stock') free
x_(13,_'bond') free
x_(13,_'stock') free
x_(14,_'bond') free
x_(14,_'stock') free
x_(15,_'bond') free
x_(15,_'stock') free
x_(16,_'bond') free
x_(16,_'stock') free
x_(17,_'bond') free
x_(17,_'stock') free
x_(18,_'bond') free
x_(18,_'stock') free
x_(19,_'bond') free
x_(19,_'stock') free
x_(2,_'bond') free
x_(2,_'stock') free
x_(20,_'bond') free
x_(20,_'stock') free
x_(3,_'bond') free
x_(3,_'stock') free
x_(4,_'bond') free
x_(4,_'stock') free
x_(5,_'bond') free
x_(5,_'stock') free
x_(6,_'bond') free
x_(6,_'stock') free
x_(7,_'bond') free
x_(7,_'stock') free
x_(8,_'bond') free
x_(8,_'stock') free
x_(9,_'bond') free
x_(9,_'stock') free
y_0 free
y_1 free
y_10 free
y_11 free
y_12 free
y_13 free
y_14 free
y_15 free
y_16 free
y_17 free
y_18 free
y_19 free
y_2 free
y_20 free
y_21 free
y_22 free
y_23 free
y_24 free
y_25 free
y_26 free
y_27 free
y_28 free
y_29 free
y_3 free
y_30 free
y_31 free
y_32 free
y_33 free
y_34 free
y_35 free
y_36 free
y_37 free
y_38 free
y_39 free
y_4 free
y_40 free
y_41 free
y_42 free
y_43 free
y_44 free
y_45 free
y_46 free
y_47 free
y_48 free
y_49 free
y_5 free
y_50 free
y_51 free
y_52 free
y_53 free
y_54 free
y_55 free
y_56 free
y_57 free
y_58 free
y_59 free
y_6 free
y_60 free
y_61 free
y_62 free
y_63 free
y_7 free
y_8 free
y_9 free
z_0 free
z_1 free
z_10 free
z_11 free
z_12 free
z_13 free
z_14 free
z_15 free
z_16 free
z_17 free
z_18 free
z_19 free
z_2 free
z_20 free
z_21 free
z_22 free
z_23 free
z_24 free
z_25 free
z_26 free
z_27 free
z_28 free
z_29 free
z_3 free
z_30 free
z_31 free
z_32 free
z_33 free
z_34 free
z_35 free
z_36 free
z_37 free
z_38 free
z_39 free
z_4 free
z_40 free
z_41 free
z_42 free
z_43 free
z_44 free
z_45 free
z_46 free
z_47 free
z_48 free
z_49 free
z_5 free
z_50 free
z_51 free
z_52 free
z_53 free
z_54 free
z_55 free
z_56 free
z_57 free
z_58 free
z_59 free
z_6 free
z_60 free
z_61 free
z_62 free
z_63 free
z_7 free
z_8 free
z_9 free
End
